p cnf 23 52
a 4 14 0
e 1 2 3 5 6 7 8 9 10 11 12 13 15 16 17 18 19 20 21 22 23 0
-3 1 0
-3 2 0
-1 -2 3 0
-4 5 -6 0
4 -5 -6 0
-4 -5 6 0
4 5 6 0
6 -7 0
-6 -7 0
1 7 -8 0
-1 -7 -8 0
1 -7 8 0
-1 7 8 0
9 3 0
9 -8 0
-3 8 -9 0
-13 -11 0
-13 12 0
11 -12 13 0
14 -13 0
14 -12 0
13 12 -14 0
-10 14 -15 0
10 -14 -15 0
-10 -14 15 0
10 14 15 0
16 9 0
16 -15 0
-9 15 -16 0
18 17 0
18 -7 0
-17 7 -18 0
-19 16 0
-19 -18 0
-16 18 19 0
4 -20 0
-4 -20 0
21 -5 0
21 17 0
5 -17 -21 0
22 -20 0
22 21 0
20 -21 -22 0
-23 19 0
-23 22 0
-19 -22 23 0
3 -13 11 -8 15 4 -1 0
-7 2 -13 -12 18 -23 0
-6 -10 -14 20 -21 12 -23 -19 0
-15 7 2 16 0
5 20 9 8 1 0
23 0
